[1] Reading Data...
[1] Solving...
Optimize a model with 17794 rows, 450 columns and 35588 nonzeros
Variable types: 0 continuous, 450 integer (450 binary)
Coefficient statistics:
  Matrix range     [1e+00, 1e+00]
  Objective range  [1e+00, 1e+00]
  Bounds range     [0e+00, 0e+00]
  RHS range        [1e+00, 1e+00]
Found heuristic solution: objective 21.0000000
Presolve removed 14386 rows and 0 columns
Presolve time: 0.44s
Presolved: 3408 rows, 450 columns, 20678 nonzeros
Variable types: 0 continuous, 450 integer (450 binary)

Root relaxation: objective 5.315458e+01, 2498 iterations, 1.24 seconds

    Nodes    |    Current Node    |     Objective Bounds      |     Work
 Expl Unexpl |  Obj  Depth IntInf | Incumbent    BestBd   Gap | It/Node Time

     0     0   53.15458    0  378   21.00000   53.15458   153%     -    2s
H    0     0                      22.0000000   53.15458   142%     -    2s
     0     0   32.11430    0  162   22.00000   32.11430  46.0%     -    3s
H    0     0                      23.0000000   32.11430  39.6%     -    3s
     0     0   30.44444    0  138   23.00000   30.44444  32.4%     -    4s
     0     0   30.00000    0  133   23.00000   30.00000  30.4%     -    4s
     0     0   30.00000    0  117   23.00000   30.00000  30.4%     -    4s
     0     0   30.00000    0  141   23.00000   30.00000  30.4%     -    4s
H    0     0                      25.0000000   30.00000  20.0%     -    4s
     0     0   30.00000    0  127   25.00000   30.00000  20.0%     -    4s
     0     0   30.00000    0  147   25.00000   30.00000  20.0%     -    4s
     0     0   30.00000    0  138   25.00000   30.00000  20.0%     -    4s
     0     0   30.00000    0  129   25.00000   30.00000  20.0%     -    5s
     0     0   30.00000    0  119   25.00000   30.00000  20.0%     -    5s
     0     0   30.00000    0  138   25.00000   30.00000  20.0%     -    5s
     0     0   30.00000    0  124   25.00000   30.00000  20.0%     -    5s
     0     0   30.00000    0  137   25.00000   30.00000  20.0%     -    6s
     0     0   30.00000    0  137   25.00000   30.00000  20.0%     -    6s
     0     2   30.00000    0  137   25.00000   30.00000  20.0%     -    8s
H   63    48                      26.0000000   30.00000  15.4%   128    9s
*  101    56              21      27.0000000   30.00000  11.1%   105   10s
   974   371   28.40000   15   62   27.00000   30.00000  11.1%  53.9   15s
H 1465   353                      28.0000000   30.00000  7.14%  52.9   18s
  1920   439   29.00000   22   51   28.00000   30.00000  7.14%  54.3   20s
* 2609    51              16      29.0000000   30.00000  3.45%  55.6   24s
  2643    46   30.00000    9  137   29.00000   30.00000  3.45%  55.5   26s
  2646    48   30.00000    6  146   29.00000   30.00000  3.45%  55.5   32s
  2648    49   30.00000   20  170   29.00000   30.00000  3.45%  55.4   36s
  2651    51   30.00000   13  125   29.00000   30.00000  3.45%  55.4   40s
  2657    55   30.00000   10   79   29.00000   30.00000  3.45%  55.2   45s
  2664    60   30.00000   17  113   29.00000   30.00000  3.45%  55.1   50s
  2670    64   30.00000   13  136   29.00000   30.00000  3.45%  55.0   55s
  2671    68   30.00000   11  150   29.00000   30.00000  3.45%  64.5   62s
  2673    70   30.00000   12  141   29.00000   30.00000  3.45%  64.5   65s
  2792    86   30.00000   22   86   29.00000   30.00000  3.45%  66.8   71s
  3276   204   30.00000   35   69   29.00000   30.00000  3.45%  68.6   75s
  3426   237   30.00000   61   79   29.00000   30.00000  3.45%  68.9   82s
  3834   355   30.00000   46   70   29.00000   30.00000  3.45%  68.3   87s
  4043   293   30.00000   61   87   29.00000   30.00000  3.45%  68.8   90s
  4943   349 infeasible   29        29.00000   30.00000  3.45%  67.8   95s
  5541   431 infeasible   22        29.00000   30.00000  3.45%  68.4  102s
  5827   478 infeasible   32        29.00000   30.00000  3.45%  69.0  106s
  6346   538 infeasible   50        29.00000   30.00000  3.45%  69.2  110s
  6818   592   30.00000   25   58   29.00000   30.00000  3.45%  70.1  117s
  7346   581 infeasible   26        29.00000   30.00000  3.45%  70.4  121s
  7822   552 infeasible   51        29.00000   30.00000  3.45%  71.5  126s
  8270   685 infeasible   23        29.00000   30.00000  3.45%  72.9  135s
  8602   667 infeasible   29        29.00000   30.00000  3.45%  73.2  140s
  9145   705   30.00000   31   71   29.00000   30.00000  3.45%  74.2  148s
  9509   812 infeasible   30        29.00000   30.00000  3.45%  74.5  152s
  9937   934 infeasible   55        29.00000   30.00000  3.45%  74.6  159s
 10170   880   30.00000   31   88   29.00000   30.00000  3.45%  74.7  164s
 10450   878   30.00000   55   93   29.00000   30.00000  3.45%  75.3  168s
 10786   879 infeasible   33        29.00000   30.00000  3.45%  75.3  171s
 11148   923 infeasible   24        29.00000   30.00000  3.45%  75.7  175s
 11812   936 infeasible   29        29.00000   30.00000  3.45%  76.4  185s
 12400   901 infeasible   22        29.00000   30.00000  3.45%  77.5  192s
 12797   908 infeasible   26        29.00000   30.00000  3.45%  77.9  196s
 13341   913 infeasible   23        29.00000   30.00000  3.45%  78.4  204s
 13421   840   30.00000   24   81   29.00000   30.00000  3.45%  78.6  207s
 13753   832   30.00000   36   70   29.00000   30.00000  3.45%  78.8  210s
 14369   816   30.00000   20   79   29.00000   30.00000  3.45%  79.2  218s
 14685   810   30.00000   20   65   29.00000   30.00000  3.45%  79.7  221s
 14947   867 infeasible   29        29.00000   30.00000  3.45%  79.8  227s
 15016   785 infeasible   23        29.00000   30.00000  3.45%  79.7  231s
 15295   836 infeasible   28        29.00000   30.00000  3.45%  79.9  239s
 15313   753   30.00000   33   81   29.00000   30.00000  3.45%  80.0  245s
 15648   804   30.00000   23   82   29.00000   30.00000  3.45%  80.2  250s
 16169   729 infeasible   39        29.00000   30.00000  3.45%  80.8  256s
 16440   789   30.00000   15  109   29.00000   30.00000  3.45%  81.0  261s
 16460   704   30.00000   18  101   29.00000   30.00000  3.45%  81.0  266s
 16837   702   30.00000   22   88   29.00000   30.00000  3.45%  81.1  270s
 17137   754   30.00000   19   66   29.00000   30.00000  3.45%  81.7  275s
 17637   816   30.00000   29   87   29.00000   30.00000  3.45%  82.0  280s
 18234   870   30.00000   27   55   29.00000   30.00000  3.45%  82.0  288s
 18315   793   30.00000   29   78   29.00000   30.00000  3.45%  82.1  292s
 18823   866 infeasible   33        29.00000   30.00000  3.45%  82.3  295s
 19137   741 infeasible   27        29.00000   30.00000  3.45%  82.7  301s
 19321   674 infeasible   27        29.00000   30.00000  3.45%  83.3  305s
 19547   650   30.00000   29   81   29.00000   30.00000  3.45%  83.7  310s
 19948   577 infeasible   22        29.00000   30.00000  3.45%  84.2  318s
 20064   506 infeasible   33        29.00000   30.00000  3.45%  84.5  322s
 20258   482   30.00000   24   57   29.00000   30.00000  3.45%  84.9  327s
 20509   527 infeasible   32        29.00000   30.00000  3.45%  85.4  332s
 20809   702   30.00000   26  137   29.00000   30.00000  3.45%  85.7  400s
 20811   703   30.00000   90  352   29.00000   30.00000  3.45%  85.7  405s
 20814   705   30.00000   33  106   29.00000   30.00000  3.45%  85.7  411s
 20817   707   30.00000   35  128   29.00000   30.00000  3.45%  85.7  416s
 20822   711   30.00000   24  127   29.00000   30.00000  3.45%  85.7  421s
 20826   713   30.00000   30  118   29.00000   30.00000  3.45%  85.7  426s
 20829   715   30.00000   71  124   29.00000   30.00000  3.45%  85.6  430s
 20831   717   30.00000   52  134   29.00000   30.00000  3.45%  85.6  436s
 20833   721   30.00000   21  123   29.00000   30.00000  3.45%  86.5  442s
 20835   723   30.00000   22  115   29.00000   30.00000  3.45%  86.5  446s
 20843   726   30.00000   23   96   29.00000   30.00000  3.45%  86.6  452s
 20851   728   30.00000   24   95   29.00000   30.00000  3.45%  86.6  455s
 20869   730   30.00000   27  101   29.00000   30.00000  3.45%  86.6  461s
 20912   727   30.00000   33   66   29.00000   30.00000  3.45%  86.6  467s
 21021   712   30.00000   39   71   29.00000   30.00000  3.45%  86.5  472s
 21328   657   30.00000   30   76   29.00000   30.00000  3.45%  86.2  477s
 21504   613   30.00000   30   70   29.00000   30.00000  3.45%  86.1  481s
 21553   573   30.00000   31   55   29.00000   30.00000  3.45%  86.1  487s
 21679   532   30.00000   35   72   29.00000   30.00000  3.45%  86.0  493s
 21787   450   30.00000   39   81   29.00000   30.00000  3.45%  86.0  497s
 22116   387   30.00000   50   80   29.00000   30.00000  3.45%  86.0  501s
 22746   202   30.00000   58   67   29.00000   30.00000  3.45%  85.8  507s
 22984   137 infeasible   57        29.00000   30.00000  3.45%  85.8  511s
 23525   333   30.00000   57   87   29.00000   30.00000  3.45%  85.7  518s
 23534   312   30.00000   58   84   29.00000   30.00000  3.45%  85.7  524s
 23594   258 infeasible   40        29.00000   30.00000  3.45%  85.8  528s
 23854   263   30.00000   61   81   29.00000   30.00000  3.45%  85.9  531s
 24497   312 infeasible   45        29.00000   30.00000  3.45%  85.7  536s
 24830   395 infeasible   69        29.00000   30.00000  3.45%  85.8  543s
 24842   327 infeasible   41        29.00000   30.00000  3.45%  85.8  547s
 25071   304   30.00000   41   75   29.00000   30.00000  3.45%  86.1  550s
 25740   324   30.00000   65   78   29.00000   30.00000  3.45%  85.8  555s
 26186   342   30.00000   42   60   29.00000   30.00000  3.45%  85.9  561s
 26536   393 infeasible   40        29.00000   30.00000  3.45%  86.0  565s
 27150   461   30.00000   77   81   29.00000   30.00000  3.45%  86.2  575s
 27574   457   30.00000   42   95   29.00000   30.00000  3.45%  86.2  582s
 27930   458   30.00000   51   83   29.00000   30.00000  3.45%  86.3  586s
 28228   456 infeasible   37        29.00000   30.00000  3.45%  86.3  590s
 28611   473 infeasible   35        29.00000   30.00000  3.45%  86.3  595s
 29070   447   30.00000   36   87   29.00000   30.00000  3.45%  86.5  605s
 29473   378   30.00000   33   80   29.00000   30.00000  3.45%  86.6  614s
 29731   332 infeasible   41        29.00000   30.00000  3.45%  87.3  618s
 29926   273 infeasible   34        29.00000   30.00000  3.45%  87.8  624s
 30129   232 infeasible   59        29.00000   30.00000  3.45%  88.1  629s
 30397   272 infeasible   65        29.00000   30.00000  3.45%  88.6  634s
 30493   220   30.00000   26   76   29.00000   30.00000  3.45%  88.8  639s
 30781   238 infeasible   40        29.00000   30.00000  3.45%  89.4  644s
 31055   221 infeasible   38        29.00000   30.00000  3.45%  90.0  652s
 31279   176 infeasible   29        29.00000   30.00000  3.45%  90.3  657s
 31543   249 infeasible   29        29.00000   30.00000  3.45%  90.7  663s
 31563   161   30.00000   36   71   29.00000   30.00000  3.45%  90.8  668s
 31818   133 infeasible   48        29.00000   30.00000  3.45%  91.4  673s
 32108   156 infeasible   36        29.00000   30.00000  3.45%  91.9  679s
 32455   151 infeasible   42        29.00000   30.00000  3.45%  92.7  684s
*32495     5              38      30.0000000   30.00000  0.00%  92.8  684s

Cutting planes:
  Cover: 4
  Clique: 455
  Flow cover: 1
  Zero half: 1

Explored 32800 nodes (3071015 simplex iterations) in 684.99 seconds
Thread count was 4 (of 4 available processors)

Solution count 9: 30 29 28 ... 21

Optimal solution found (tolerance 1.00e-04)
Best objective 3.000000000000e+01, best bound 3.000000000000e+01, gap 0.0000%
[1] Generating Graphs:
[1] Generating: ./../results/frb30-15-5/frb30-15-5-Green.jpeg
[1] Generating: ./../results/frb30-15-5/frb30-15-5-Blue.jpeg
[1] Generating: ./../results/frb30-15-5/frb30-15-5-Orange.jpeg
[1] Generating: ./../results/frb30-15-5/frb30-15-5-Purple.jpeg
[1] Generating: ./../results/frb30-15-5/frb30-15-5-Pink.jpeg
[1] Generating: ./../results/frb30-15-5/frb30-15-5-Red.jpeg
[1] Done.
